Optimal - objective value 1020.00000000
      0 x_0                    1                      18
      6 x_6                    1                       0
     11 x_11                   1                      -4
     16 x_16                   1                       0
     19 x_19                   1                       0
     25 x_25                   1                       0
     31 x_31                   1                       0
     34 x_34                   1                       0
     42 x_42                   1                       0
     45 x_45                   1         -13.3913043478261
     51 x_51                   1         -3.2608695652174
     56 x_56                   1                       0
     60 x_60                   1         -4.78260869565216
     66 x_66                   1                       0
     70 x_70                   1         17.7826086956522
     75 x_75                   1                       0
     79 x_79                   1         17.4347826086957
     81 x_81                   1                       0
     83 x_83                   1                       2
     88 x_88                   1         22.2173913043478
     89 x_89                   1         7.65217391304348
     92 x_92                   1         -1.7391304347826
     96 x_96                   1                       0
    100 x_100                  1                       0
    105 x_105                  1         -9.13043478260872
    111 x_111                  1                       5
    117 x_117                  1                       0
    121 x_121                  1                       0
    124 x_124                  1         -17.7391304347826
    129 x_129                  1         -14.7826086956522
    136 x_136                  1                       0
    140 x_140                  1                      24
    141 x_141                  1         28.9782608695652
    147 x_147                  1         2.60869565217391
    150 x_150                  1                       0
    155 x_155                  1                       0
    158 x_158                  1                       0
    164 x_164                  1         -25.7391304347826
    166 x_166                  1                       0
    172 x_172                  1                      16
    176 x_176                  1                       0
    180 x_180                  1         -2.21739130434784
    181 x_181                  1                     -30
    188 x_188                  1                      16
    193 x_193                  1                       0
    194 x_194                  1         8.7391304347826
    200 x_200                  1                       0
    204 x_204                  1                       0
    209 x_209                  1                       0
    212 x_212                  1                       0
    222 x_222                  1         -2.17391304347825
    224 x_224                  1         4.17391304347825
    230 x_230                  1                       3
    234 x_234                  1         11.3478260869565
    238 x_238                  1                       0
    244 x_244                  1         6.13043478260869
    248 x_248                  1         16.7391304347826
    252 x_252                  1                       0
    257 x_257                  1                       0
    260 x_260                  1                       0
Optimal - objective value 1020.00000000
      0 x_0                    1                      18
      6 x_6                    1                       0
     11 x_11                   1                      -4
     16 x_16                   1                       0
     19 x_19                   1                       0
     25 x_25                   1                       0
     31 x_31                   1                       0
     34 x_34                   1                       0
     42 x_42                   1                       0
     45 x_45                   1         -13.3913043478261
     51 x_51                   1         -3.2608695652174
     56 x_56                   1                       0
     60 x_60                   1         -4.78260869565216
     66 x_66                   1                       0
     70 x_70                   1         17.7826086956522
     75 x_75                   1                       0
     79 x_79                   1         17.4347826086957
     81 x_81                   1                       0
     83 x_83                   1                       2
     88 x_88                   1         22.2173913043478
     89 x_89                   1         7.65217391304348
     92 x_92                   1         -1.7391304347826
     96 x_96                   1                       0
    100 x_100                  1                       0
    105 x_105                  1         -9.13043478260872
    111 x_111                  1                       5
    117 x_117                  1                       0
    121 x_121                  1                       0
    124 x_124                  1         -17.7391304347826
    129 x_129                  1         -14.7826086956522
    136 x_136                  1                       0
    140 x_140                  1                      24
    141 x_141                  1         28.9782608695652
    147 x_147                  1         2.60869565217391
    150 x_150                  1                       0
    155 x_155                  1                       0
    158 x_158                  1                       0
    164 x_164                  1         -25.7391304347826
    166 x_166                  1                       0
    172 x_172                  1                      16
    176 x_176                  1                       0
    180 x_180                  1         -2.21739130434784
    181 x_181                  1                     -30
    188 x_188                  1                      16
    193 x_193                  1                       0
    194 x_194                  1         8.7391304347826
    200 x_200                  1                       0
    204 x_204                  1                       0
    209 x_209                  1                       0
    212 x_212                  1                       0
    222 x_222                  1         -2.17391304347825
    224 x_224                  1         4.17391304347825
    230 x_230                  1                       3
    234 x_234                  1         11.3478260869565
    238 x_238                  1                       0
    244 x_244                  1         6.13043478260869
    248 x_248                  1         16.7391304347826
    252 x_252                  1                       0
    257 x_257                  1                       0
    260 x_260                  1                       0
